NAME : block_25.362051.tour
COMMENT : Length = 362051
COMMENT : Found by LKH-3 [Keld Helsgaun] Mon Feb  2 23:13:27 2026
TYPE : TOUR
DIMENSION : 104
TOUR_SECTION
91
82
72
62
52
43
35
27
19
20
28
36
44
53
63
73
83
92
100
93
94
84
74
64
54
2
104
1
45
55
65
75
85
76
66
56
46
37
29
21
22
30
38
47
57
67
77
86
95
87
78
68
58
48
39
31
23
15
14
8
9
3
4
10
16
24
32
40
49
59
69
79
88
96
101
97
89
80
70
60
50
41
33
25
17
11
5
6
7
13
12
18
26
34
42
51
61
71
81
90
98
102
103
99
-1
EOF
